InboundTrucks  = 60;
OutboundTrucks = 30;
InboundDoors   = 6;
OutboundDoors  = 6;
ReleaseTime    = [81,14,3,94,35,31,28,17,94,13,86,94,114,69,11,75,54,4,3,11,27,29,64,77,3,71,25,91,83,89,69,53,28,57,75,35,103,111,0,97,103,20,89,54,43,35,19,27,97,43,13,11,48,12,45,108,44,77,33,103];
UnloadTime     = [12,39,44,17,34,15,45,28,33,22,14,12,24,28,15,24,16,34,27,39,33,20,33,32,23,27,14,20,44,25,20,39,34,27,45,24,30,13,24,12,30,35,27,14,23,30,23,41,35,39,19,26,18,25,45,44,26,37,35,33];
LoadTime       = [12,9,21,20,7,29,6,8,9,25,10,30,26,18,24,7,17,17,24,19,21,13,22,5,26,28,8,26,22,29];
TransferTime   = [| 0,0,37,10,0,0,0,0,16,0,0,0,0,20,0,0,0,30,0,33,0,0,0,46,0,41,0,0,0,40 | 0,43,0,0,44,0,0,0,0,0,0,0,0,14,0,0,24,50,14,0,0,25,0,0,0,0,0,0,40,0 | 16,0,0,0,0,16,31,0,22,38,21,30,14,0,0,0,44,0,0,0,0,41,0,0,0,10,0,0,0,0 | 0,0,0,0,0,28,13,0,0,0,47,0,0,0,42,21,14,0,17,0,0,0,15,0,0,0,0,30,35,29 | 0,0,0,49,0,0,23,0,32,0,0,0,44,0,0,0,0,45,0,0,0,17,0,0,28,0,0,50,0,0 | 0,0,50,0,0,18,0,0,0,0,0,14,0,0,12,0,14,18,33,0,0,0,0,25,0,0,0,0,0,0 | 0,20,0,0,0,31,0,0,0,0,20,0,12,0,39,0,0,0,22,0,0,27,0,0,0,0,0,26,26,48 | 0,0,0,0,0,0,0,0,0,44,0,0,0,37,31,0,0,29,0,0,0,0,0,34,0,0,0,0,0,28 | 47,0,0,0,0,0,0,0,0,0,0,0,0,25,0,22,12,40,0,0,0,0,0,0,0,0,10,0,0,0 | 0,43,0,0,0,18,0,0,0,0,0,0,0,0,0,0,0,0,0,0,0,50,0,0,0,38,28,31,0,0 | 24,0,23,36,0,0,36,0,0,0,46,0,32,0,0,0,0,0,0,0,0,0,0,27,0,0,0,0,0,0 | 0,0,0,0,0,37,39,26,0,30,0,0,0,0,0,0,0,0,32,14,0,0,0,19,11,0,40,0,0,26 | 0,48,0,0,0,29,11,0,0,0,0,0,47,0,0,29,0,0,46,0,0,0,0,0,0,0,0,33,0,0 | 0,0,0,0,0,0,0,0,0,0,0,0,0,38,39,0,0,0,0,0,0,0,0,0,0,0,0,0,25,0 | 0,0,0,0,0,0,24,0,47,0,0,0,0,0,0,0,0,22,0,0,0,0,40,0,0,0,0,0,0,0 | 0,0,0,12,0,0,0,41,10,0,0,0,13,0,0,14,0,50,0,46,0,25,36,0,0,43,0,0,0,0 | 0,0,16,0,23,0,25,14,36,0,0,0,28,0,0,0,0,0,0,0,0,0,0,0,0,0,20,0,0,0 | 0,0,0,0,0,0,0,0,0,0,0,0,24,0,0,0,0,0,0,0,21,0,0,0,47,0,0,0,0,0 | 0,20,0,0,22,0,0,0,0,0,0,0,0,0,0,0,0,0,33,0,0,0,27,0,0,0,0,50,0,20 | 0,36,17,0,19,0,0,0,0,0,0,45,22,0,0,0,0,0,0,0,0,0,0,0,0,0,0,0,44,0 | 0,0,0,0,0,0,34,36,40,0,0,0,0,0,0,0,42,0,0,38,39,19,0,0,40,0,0,0,0,31 | 0,0,0,0,0,0,0,14,28,0,0,0,50,0,20,0,0,13,0,0,43,0,0,21,34,0,47,39,0,0 | 0,0,0,0,0,32,0,0,0,0,0,0,0,0,34,0,0,0,0,0,0,0,0,0,0,48,0,0,0,0 | 32,22,0,0,0,0,0,0,0,0,0,0,0,0,28,0,0,44,0,0,0,0,40,0,0,0,0,0,24,0 | 0,0,0,0,0,0,44,33,0,0,0,0,0,24,0,0,0,0,0,0,0,0,0,26,12,0,0,0,44,39 | 0,0,0,0,0,0,0,0,0,0,0,0,0,38,0,0,33,0,0,0,0,17,0,0,23,0,0,31,18,0 | 45,23,0,19,0,0,0,0,0,0,0,11,32,0,30,26,36,0,0,0,40,0,42,49,43,0,0,40,0,0 | 38,15,0,18,0,0,0,0,0,0,0,0,17,0,0,0,0,38,0,0,0,0,0,0,0,0,0,0,0,15 | 16,0,0,13,0,0,27,32,0,0,0,0,28,0,0,0,40,16,0,0,27,0,0,0,0,0,0,0,27,27 | 0,0,0,19,0,0,50,0,43,36,0,29,0,0,0,13,49,15,0,0,0,0,0,0,37,47,0,0,35,0 | 23,0,18,0,0,41,0,34,0,45,0,0,12,0,0,30,0,0,0,0,11,0,49,0,0,0,0,37,0,0 | 0,0,0,0,42,0,0,32,0,0,0,16,22,19,0,0,50,0,0,0,0,0,0,0,0,0,31,14,0,0 | 0,0,0,39,0,28,15,0,0,0,0,0,0,0,0,0,0,0,13,0,0,0,0,21,38,0,0,0,0,0 | 0,0,0,50,0,16,0,0,0,0,0,0,15,0,32,0,50,0,15,0,0,0,0,0,0,0,0,0,0,0 | 0,0,23,0,0,18,28,0,44,0,0,31,0,0,0,21,0,0,0,38,33,0,38,0,0,0,25,29,0,0 | 0,0,0,0,0,0,0,0,0,0,0,26,40,0,0,43,0,0,0,0,0,37,24,0,0,0,0,0,0,0 | 24,16,0,0,0,28,0,0,0,0,0,0,0,23,0,0,0,0,28,17,36,0,0,41,0,42,0,0,0,32 | 36,15,0,0,0,0,0,0,40,34,0,0,14,0,0,0,0,0,0,44,0,0,0,0,0,0,18,39,22,22 | 0,0,0,0,0,0,22,0,0,31,0,0,0,0,0,0,0,41,0,0,0,37,48,0,28,0,28,0,0,0 | 0,0,32,0,0,0,0,50,0,0,0,11,48,0,0,25,0,0,0,0,0,0,0,0,0,0,0,0,0,17 | 21,0,0,0,0,0,0,0,0,0,0,14,0,0,0,30,0,0,0,0,0,50,33,0,22,0,41,45,0,0 | 0,15,35,0,0,0,0,0,30,0,0,0,0,0,0,0,18,0,0,17,0,0,24,0,0,0,0,0,0,0 | 29,0,20,0,0,49,0,0,0,0,0,12,0,0,0,46,0,0,0,0,0,0,0,0,0,0,13,36,0,48 | 30,0,0,0,33,0,25,0,0,16,34,0,0,0,0,0,0,0,20,0,0,0,0,35,0,0,32,28,0,0 | 0,0,0,0,0,0,0,0,0,0,0,45,0,0,0,0,0,0,0,16,0,0,0,0,0,42,0,12,31,0 | 0,42,49,0,0,0,0,0,0,0,0,0,0,31,0,0,0,0,0,0,40,0,0,0,0,13,0,50,0,0 | 0,0,46,0,11,0,0,0,42,0,0,0,0,18,0,0,0,0,0,0,0,0,0,0,0,0,0,0,0,0 | 0,0,0,0,0,0,0,0,0,0,0,0,0,0,0,0,0,0,0,12,0,0,0,0,0,0,44,0,0,0 | 47,13,0,0,0,36,0,0,0,45,0,40,0,28,0,0,0,46,12,0,21,0,35,0,28,0,46,0,0,0 | 0,0,0,0,42,0,17,0,0,0,0,31,0,0,0,50,0,0,0,16,18,0,0,34,27,0,0,0,33,0 | 17,0,42,0,0,0,0,0,0,0,18,0,0,0,0,0,0,0,0,0,0,0,0,0,0,0,0,0,45,0 | 44,30,0,0,0,0,0,0,0,18,0,0,39,0,0,26,0,0,0,32,0,0,14,0,0,0,18,0,0,0 | 0,0,0,0,0,0,0,0,0,0,0,44,0,24,0,0,0,0,0,0,0,39,0,0,0,0,36,0,0,0 | 14,12,0,0,0,12,0,23,0,0,28,46,0,0,0,0,0,43,29,0,0,0,0,37,0,32,0,0,0,0 | 0,34,44,0,0,0,0,0,0,0,0,0,25,0,0,38,0,22,34,0,0,0,47,0,0,0,0,0,0,22 | 0,40,0,0,0,0,30,0,0,0,0,0,0,0,40,0,0,30,0,0,19,45,0,0,0,31,46,0,0,0 | 0,0,0,0,0,0,32,44,0,0,0,0,12,0,13,0,0,0,19,42,0,50,0,0,0,0,45,0,27,0 | 0,0,0,0,0,16,0,49,0,0,0,0,0,0,0,0,15,0,0,0,34,0,0,0,0,37,0,0,0,0 | 0,0,46,0,14,0,0,0,0,30,23,0,0,0,0,20,0,0,0,0,0,0,0,0,0,32,37,14,0,0 | 0,0,0,27,0,0,45,0,0,0,0,49,0,14,19,0,0,34,0,10,0,0,0,15,38,0,0,15,0,48 |];
